p cnf 59 206
1 -2 0
-1 -2 0
-5 -6 -7 0
5 6 -7 0
-5 6 7 0
5 -6 7 0
8 4 0
8 -7 0
-4 7 -8 0
3 8 -9 0
-3 -8 -9 0
3 -8 9 0
-3 8 9 0
2 9 -10 0
-2 -9 -10 0
2 -9 10 0
-2 9 10 0
-11 1 0
-11 -1 0
12 -10 0
12 -11 0
10 11 -12 0
14 -13 0
14 1 0
13 -1 -14 0
-6 -14 -15 0
6 14 -15 0
-6 14 15 0
6 -14 15 0
-16 -1 0
-16 -4 0
1 4 16 0
17 15 0
17 16 0
-15 -16 -17 0
18 -7 0
18 13 0
7 -13 -18 0
19 -17 0
19 -18 0
17 18 -19 0
-20 12 0
-20 19 0
-12 -19 20 0
21 4 0
21 3 0
-4 -3 -21 0
-22 -11 0
-22 21 0
11 -21 22 0
-6 23 0
6 23 0
-11 4 -24 0
11 -4 -24 0
-11 -4 24 0
11 4 24 0
25 23 0
25 24 0
-23 -24 -25 0
-26 24 0
-26 14 0
-24 -14 26 0
25 26 -27 0
-25 -26 -27 0
25 -26 27 0
-25 26 27 0
-22 27 -28 0
22 -27 -28 0
-22 -27 28 0
22 27 28 0
20 28 -29 0
-20 -28 -29 0
20 -28 29 0
-20 28 29 0
7 2 -30 0
-7 -2 -30 0
7 -2 30 0
-7 2 30 0
29 -30 -31 0
-29 30 -31 0
29 30 31 0
-29 -30 31 0
32 15 0
32 -16 0
-15 16 -32 0
33 32 0
33 14 0
-32 -14 -33 0
-34 -33 0
-34 -8 0
33 8 34 0
-36 -35 0
-36 -15 0
35 15 36 0
-37 34 0
-37 36 0
-34 -36 37 0
-38 -9 0
-38 7 0
9 -7 38 0
39 -37 0
39 38 0
37 -38 -39 0
-41 40 0
-41 -7 0
-40 7 41 0
-41 -42 -43 0
41 42 -43 0
-41 42 43 0
41 -42 43 0
-39 -43 -44 0
39 43 -44 0
-39 43 44 0
39 -43 44 0
-25 -5 -45 0
25 5 -45 0
-25 5 45 0
25 -5 45 0
46 1 0
46 25 0
-1 -25 -46 0
-46 47 0
46 47 0
45 -47 -48 0
-45 47 -48 0
45 47 48 0
-45 -47 48 0
49 -44 0
49 48 0
44 -48 -49 0
-50 42 0
-50 18 0
-42 -18 50 0
17 33 -51 0
-17 -33 -51 0
17 -33 51 0
-17 33 51 0
53 52 0
53 -7 0
-52 7 -53 0
54 -51 0
54 -53 0
51 53 -54 0
-55 -50 0
-55 -54 0
50 54 55 0
56 5 0
56 -16 0
-5 16 -56 0
57 55 0
57 -56 0
-55 56 -57 0
-58 -49 0
-58 57 0
49 -57 58 0
59 31 0
59 58 0
-31 -58 -59 0
6 -1 54 14 0
5 -24 -33 19 15 0
-32 -20 0
5 -40 25 59 50 28 0
57 -19 -50 0
-31 -7 -24 0
20 54 -58 0
38 58 21 15 0
14 1 0
11 -22 0
-18 32 -54 -59 -26 -19 0
13 -8 9 -49 -5 -56 0
17 -27 57 13 -26 0
-25 -6 22 0
-57 -39 -1 -30 0
-30 37 3 41 0
-6 -55 11 0
-11 50 55 0
52 56 54 -13 -50 0
-24 -6 34 44 21 0
-17 -12 30 35 41 0
31 -59 29 -3 9 24 0
52 20 58 19 0
-42 -52 23 -39 55 0
-27 8 -3 0
1 42 0
11 -27 -19 -57 0
14 -9 42 40 0
-59 28 46 0
42 -33 44 5 -31 -10 0
20 18 11 22 0
-39 -57 58 -47 -37 22 0
56 19 0
-48 -28 -54 26 0
44 -19 32 50 -1 0
-43 12 14 -3 0
48 -55 47 6 39 0
-50 -15 0
-53 15 12 -4 -34 0
17 27 12 -26 0
37 -26 -58 -49 0
-1 44 -48 46 0
32 40 27 33 44 0
35 17 0
-34 22 -59 -55 -18 0
-21 24 -48 17 0
50 -16 -29 20 -39 40 0
59 0
